NAME : local_8
TYPE : ATSP
DIMENSION : 4
EDGE_WEIGHT_TYPE : EXPLICIT
EDGE_WEIGHT_FORMAT : FULL_MATRIX
EDGE_WEIGHT_SECTION
0 10000000 446 10000000 
0 0 10000000 599 
0 10000000 0 10000000 
0 10000000 10000000 0 
EOF